/*********************************************
 * OPL 20.1.0.0 Data
 * Author: LEONARDO CARLASSARE
 * Creation Date: 3 nov 2021 at 11:36:57
 *********************************************/


T = 1440;
J = {"DW", "LM", "CD"};
L = 9;


IntervalPrices = {"P1", "P2", "P3", "P4", "P5", "P6"};
IPstart_interval = [1, 421, 661, 841, 1081, 1261];
IPend_interval = [420, 660, 840, 1080, 1260, 1440];
Prices = [0.0996, 0.2739, 0.2828, 0.0817, 0.1548, 0.1438];
instantPrices = [0.0996, 0.0996, 0.0996, 0.0996, 0.0996, 0.0996, 0.0996, 0.0996, 0.0996, 0.0996, 0.0996, 0.0996, 0.0996, 0.0996, 0.0996, 0.0996, 0.0996, 0.0996, 0.0996, 0.0996, 0.0996, 0.0996, 0.0996, 0.0996, 0.0996, 0.0996, 0.0996, 0.0996, 0.0996, 0.0996, 0.0996, 0.0996, 0.0996, 0.0996, 0.0996, 0.0996, 0.0996, 0.0996, 0.0996, 0.0996, 0.0996, 0.0996, 0.0996, 0.0996, 0.0996, 0.0996, 0.0996, 0.0996, 0.0996, 0.0996, 0.0996, 0.0996, 0.0996, 0.0996, 0.0996, 0.0996, 0.0996, 0.0996, 0.0996, 0.0996, 0.0996, 0.0996, 0.0996, 0.0996, 0.0996, 0.0996, 0.0996, 0.0996, 0.0996, 0.0996, 0.0996, 0.0996, 0.0996, 0.0996, 0.0996, 0.0996, 0.0996, 0.0996, 0.0996, 0.0996, 0.0996, 0.0996, 0.0996, 0.0996, 0.0996, 0.0996, 0.0996, 0.0996, 0.0996, 0.0996, 0.0996, 0.0996, 0.0996, 0.0996, 0.0996, 0.0996, 0.0996, 0.0996, 0.0996, 0.0996, 0.0996, 0.0996, 0.0996, 0.0996, 0.0996, 0.0996, 0.0996, 0.0996, 0.0996, 0.0996, 0.0996, 0.0996, 0.0996, 0.0996, 0.0996, 0.0996, 0.0996, 0.0996, 0.0996, 0.0996, 0.0996, 0.0996, 0.0996, 0.0996, 0.0996, 0.0996, 0.0996, 0.0996, 0.0996, 0.0996, 0.0996, 0.0996, 0.0996, 0.0996, 0.0996, 0.0996, 0.0996, 0.0996, 0.0996, 0.0996, 0.0996, 0.0996, 0.0996, 0.0996, 0.0996, 0.0996, 0.0996, 0.0996, 0.0996, 0.0996, 0.0996, 0.0996, 0.0996, 0.0996, 0.0996, 0.0996, 0.0996, 0.0996, 0.0996, 0.0996, 0.0996, 0.0996, 0.0996, 0.0996, 0.0996, 0.0996, 0.0996, 0.0996, 0.0996, 0.0996, 0.0996, 0.0996, 0.0996, 0.0996, 0.0996, 0.0996, 0.0996, 0.0996, 0.0996, 0.0996, 0.0996, 0.0996, 0.0996, 0.0996, 0.0996, 0.0996, 0.0996, 0.0996, 0.0996, 0.0996, 0.0996, 0.0996, 0.0996, 0.0996, 0.0996, 0.0996, 0.0996, 0.0996, 0.0996, 0.0996, 0.0996, 0.0996, 0.0996, 0.0996, 0.0996, 0.0996, 0.0996, 0.0996, 0.0996, 0.0996, 0.0996, 0.0996, 0.0996, 0.0996, 0.0996, 0.0996, 0.0996, 0.0996, 0.0996, 0.0996, 0.0996, 0.0996, 0.0996, 0.0996, 0.0996, 0.0996, 0.0996, 0.0996, 0.0996, 0.0996, 0.0996, 0.0996, 0.0996, 0.0996, 0.0996, 0.0996, 0.0996, 0.0996, 0.0996, 0.0996, 0.0996, 0.0996, 0.0996, 0.0996, 0.0996, 0.0996, 0.0996, 0.0996, 0.0996, 0.0996, 0.0996, 0.0996, 0.0996, 0.0996, 0.0996, 0.0996, 0.0996, 0.0996, 0.0996, 0.0996, 0.0996, 0.0996, 0.0996, 0.0996, 0.0996, 0.0996, 0.0996, 0.0996, 0.0996, 0.0996, 0.0996, 0.0996, 0.0996, 0.0996, 0.0996, 0.0996, 0.0996, 0.0996, 0.0996, 0.0996, 0.0996, 0.0996, 0.0996, 0.0996, 0.0996, 0.0996, 0.0996, 0.0996, 0.0996, 0.0996, 0.0996, 0.0996, 0.0996, 0.0996, 0.0996, 0.0996, 0.0996, 0.0996, 0.0996, 0.0996, 0.0996, 0.0996, 0.0996, 0.0996, 0.0996, 0.0996, 0.0996, 0.0996, 0.0996, 0.0996, 0.0996, 0.0996, 0.0996, 0.0996, 0.0996, 0.0996, 0.0996, 0.0996, 0.0996, 0.0996, 0.0996, 0.0996, 0.0996, 0.0996, 0.0996, 0.0996, 0.0996, 0.0996, 0.0996, 0.0996, 0.0996, 0.0996, 0.0996, 0.0996, 0.0996, 0.0996, 0.0996, 0.0996, 0.0996, 0.0996, 0.0996, 0.0996, 0.0996, 0.0996, 0.0996, 0.0996, 0.0996, 0.0996, 0.0996, 0.0996, 0.0996, 0.0996, 0.0996, 0.0996, 0.0996, 0.0996, 0.0996, 0.0996, 0.0996, 0.0996, 0.0996, 0.0996, 0.0996, 0.0996, 0.0996, 0.0996, 0.0996, 0.0996, 0.0996, 0.0996, 0.0996, 0.0996, 0.0996, 0.0996, 0.0996, 0.0996, 0.0996, 0.0996, 0.0996, 0.0996, 0.0996, 0.0996, 0.0996, 0.0996, 0.0996, 0.0996, 0.0996, 0.0996, 0.0996, 0.0996, 0.0996, 0.0996, 0.0996, 0.0996, 0.0996, 0.0996, 0.0996, 0.0996, 0.0996, 0.0996, 0.0996, 0.0996, 0.0996, 0.0996, 0.0996, 0.0996, 0.0996, 0.0996, 0.0996, 0.0996, 0.0996, 0.0996, 0.0996, 0.0996, 0.0996, 0.0996, 0.0996, 0.0996, 0.0996, 0.0996, 0.0996, 0.2739, 0.2739, 0.2739, 0.2739, 0.2739, 0.2739, 0.2739, 0.2739, 0.2739, 0.2739, 0.2739, 0.2739, 0.2739, 0.2739, 0.2739, 0.2739, 0.2739, 0.2739, 0.2739, 0.2739, 0.2739, 0.2739, 0.2739, 0.2739, 0.2739, 0.2739, 0.2739, 0.2739, 0.2739, 0.2739, 0.2739, 0.2739, 0.2739, 0.2739, 0.2739, 0.2739, 0.2739, 0.2739, 0.2739, 0.2739, 0.2739, 0.2739, 0.2739, 0.2739, 0.2739, 0.2739, 0.2739, 0.2739, 0.2739, 0.2739, 0.2739, 0.2739, 0.2739, 0.2739, 0.2739, 0.2739, 0.2739, 0.2739, 0.2739, 0.2739, 0.2739, 0.2739, 0.2739, 0.2739, 0.2739, 0.2739, 0.2739, 0.2739, 0.2739, 0.2739, 0.2739, 0.2739, 0.2739, 0.2739, 0.2739, 0.2739, 0.2739, 0.2739, 0.2739, 0.2739, 0.2739, 0.2739, 0.2739, 0.2739, 0.2739, 0.2739, 0.2739, 0.2739, 0.2739, 0.2739, 0.2739, 0.2739, 0.2739, 0.2739, 0.2739, 0.2739, 0.2739, 0.2739, 0.2739, 0.2739, 0.2739, 0.2739, 0.2739, 0.2739, 0.2739, 0.2739, 0.2739, 0.2739, 0.2739, 0.2739, 0.2739, 0.2739, 0.2739, 0.2739, 0.2739, 0.2739, 0.2739, 0.2739, 0.2739, 0.2739, 0.2739, 0.2739, 0.2739, 0.2739, 0.2739, 0.2739, 0.2739, 0.2739, 0.2739, 0.2739, 0.2739, 0.2739, 0.2739, 0.2739, 0.2739, 0.2739, 0.2739, 0.2739, 0.2739, 0.2739, 0.2739, 0.2739, 0.2739, 0.2739, 0.2739, 0.2739, 0.2739, 0.2739, 0.2739, 0.2739, 0.2739, 0.2739, 0.2739, 0.2739, 0.2739, 0.2739, 0.2739, 0.2739, 0.2739, 0.2739, 0.2739, 0.2739, 0.2739, 0.2739, 0.2739, 0.2739, 0.2739, 0.2739, 0.2739, 0.2739, 0.2739, 0.2739, 0.2739, 0.2739, 0.2739, 0.2739, 0.2739, 0.2739, 0.2739, 0.2739, 0.2739, 0.2739, 0.2739, 0.2739, 0.2739, 0.2739, 0.2739, 0.2739, 0.2739, 0.2739, 0.2739, 0.2739, 0.2739, 0.2739, 0.2739, 0.2739, 0.2739, 0.2739, 0.2739, 0.2739, 0.2739, 0.2739, 0.2739, 0.2739, 0.2739, 0.2739, 0.2739, 0.2739, 0.2739, 0.2739, 0.2739, 0.2739, 0.2739, 0.2739, 0.2739, 0.2739, 0.2739, 0.2739, 0.2739, 0.2739, 0.2739, 0.2739, 0.2739, 0.2739, 0.2739, 0.2739, 0.2739, 0.2739, 0.2739, 0.2739, 0.2739, 0.2739, 0.2739, 0.2739, 0.2739, 0.2739, 0.2739, 0.2739, 0.2739, 0.2739, 0.2828, 0.2828, 0.2828, 0.2828, 0.2828, 0.2828, 0.2828, 0.2828, 0.2828, 0.2828, 0.2828, 0.2828, 0.2828, 0.2828, 0.2828, 0.2828, 0.2828, 0.2828, 0.2828, 0.2828, 0.2828, 0.2828, 0.2828, 0.2828, 0.2828, 0.2828, 0.2828, 0.2828, 0.2828, 0.2828, 0.2828, 0.2828, 0.2828, 0.2828, 0.2828, 0.2828, 0.2828, 0.2828, 0.2828, 0.2828, 0.2828, 0.2828, 0.2828, 0.2828, 0.2828, 0.2828, 0.2828, 0.2828, 0.2828, 0.2828, 0.2828, 0.2828, 0.2828, 0.2828, 0.2828, 0.2828, 0.2828, 0.2828, 0.2828, 0.2828, 0.2828, 0.2828, 0.2828, 0.2828, 0.2828, 0.2828, 0.2828, 0.2828, 0.2828, 0.2828, 0.2828, 0.2828, 0.2828, 0.2828, 0.2828, 0.2828, 0.2828, 0.2828, 0.2828, 0.2828, 0.2828, 0.2828, 0.2828, 0.2828, 0.2828, 0.2828, 0.2828, 0.2828, 0.2828, 0.2828, 0.2828, 0.2828, 0.2828, 0.2828, 0.2828, 0.2828, 0.2828, 0.2828, 0.2828, 0.2828, 0.2828, 0.2828, 0.2828, 0.2828, 0.2828, 0.2828, 0.2828, 0.2828, 0.2828, 0.2828, 0.2828, 0.2828, 0.2828, 0.2828, 0.2828, 0.2828, 0.2828, 0.2828, 0.2828, 0.2828, 0.2828, 0.2828, 0.2828, 0.2828, 0.2828, 0.2828, 0.2828, 0.2828, 0.2828, 0.2828, 0.2828, 0.2828, 0.2828, 0.2828, 0.2828, 0.2828, 0.2828, 0.2828, 0.2828, 0.2828, 0.2828, 0.2828, 0.2828, 0.2828, 0.2828, 0.2828, 0.2828, 0.2828, 0.2828, 0.2828, 0.2828, 0.2828, 0.2828, 0.2828, 0.2828, 0.2828, 0.2828, 0.2828, 0.2828, 0.2828, 0.2828, 0.2828, 0.2828, 0.2828, 0.2828, 0.2828, 0.2828, 0.2828, 0.2828, 0.2828, 0.2828, 0.2828, 0.2828, 0.2828, 0.2828, 0.2828, 0.2828, 0.2828, 0.2828, 0.2828, 0.0817, 0.0817, 0.0817, 0.0817, 0.0817, 0.0817, 0.0817, 0.0817, 0.0817, 0.0817, 0.0817, 0.0817, 0.0817, 0.0817, 0.0817, 0.0817, 0.0817, 0.0817, 0.0817, 0.0817, 0.0817, 0.0817, 0.0817, 0.0817, 0.0817, 0.0817, 0.0817, 0.0817, 0.0817, 0.0817, 0.0817, 0.0817, 0.0817, 0.0817, 0.0817, 0.0817, 0.0817, 0.0817, 0.0817, 0.0817, 0.0817, 0.0817, 0.0817, 0.0817, 0.0817, 0.0817, 0.0817, 0.0817, 0.0817, 0.0817, 0.0817, 0.0817, 0.0817, 0.0817, 0.0817, 0.0817, 0.0817, 0.0817, 0.0817, 0.0817, 0.0817, 0.0817, 0.0817, 0.0817, 0.0817, 0.0817, 0.0817, 0.0817, 0.0817, 0.0817, 0.0817, 0.0817, 0.0817, 0.0817, 0.0817, 0.0817, 0.0817, 0.0817, 0.0817, 0.0817, 0.0817, 0.0817, 0.0817, 0.0817, 0.0817, 0.0817, 0.0817, 0.0817, 0.0817, 0.0817, 0.0817, 0.0817, 0.0817, 0.0817, 0.0817, 0.0817, 0.0817, 0.0817, 0.0817, 0.0817, 0.0817, 0.0817, 0.0817, 0.0817, 0.0817, 0.0817, 0.0817, 0.0817, 0.0817, 0.0817, 0.0817, 0.0817, 0.0817, 0.0817, 0.0817, 0.0817, 0.0817, 0.0817, 0.0817, 0.0817, 0.0817, 0.0817, 0.0817, 0.0817, 0.0817, 0.0817, 0.0817, 0.0817, 0.0817, 0.0817, 0.0817, 0.0817, 0.0817, 0.0817, 0.0817, 0.0817, 0.0817, 0.0817, 0.0817, 0.0817, 0.0817, 0.0817, 0.0817, 0.0817, 0.0817, 0.0817, 0.0817, 0.0817, 0.0817, 0.0817, 0.0817, 0.0817, 0.0817, 0.0817, 0.0817, 0.0817, 0.0817, 0.0817, 0.0817, 0.0817, 0.0817, 0.0817, 0.0817, 0.0817, 0.0817, 0.0817, 0.0817, 0.0817, 0.0817, 0.0817, 0.0817, 0.0817, 0.0817, 0.0817, 0.0817, 0.0817, 0.0817, 0.0817, 0.0817, 0.0817, 0.0817, 0.0817, 0.0817, 0.0817, 0.0817, 0.0817, 0.0817, 0.0817, 0.0817, 0.0817, 0.0817, 0.0817, 0.0817, 0.0817, 0.0817, 0.0817, 0.0817, 0.0817, 0.0817, 0.0817, 0.0817, 0.0817, 0.0817, 0.0817, 0.0817, 0.0817, 0.0817, 0.0817, 0.0817, 0.0817, 0.0817, 0.0817, 0.0817, 0.0817, 0.0817, 0.0817, 0.0817, 0.0817, 0.0817, 0.0817, 0.0817, 0.0817, 0.0817, 0.0817, 0.0817, 0.0817, 0.0817, 0.0817, 0.0817, 0.0817, 0.0817, 0.0817, 0.0817, 0.0817, 0.0817, 0.0817, 0.0817, 0.0817, 0.0817, 0.0817, 0.1548, 0.1548, 0.1548, 0.1548, 0.1548, 0.1548, 0.1548, 0.1548, 0.1548, 0.1548, 0.1548, 0.1548, 0.1548, 0.1548, 0.1548, 0.1548, 0.1548, 0.1548, 0.1548, 0.1548, 0.1548, 0.1548, 0.1548, 0.1548, 0.1548, 0.1548, 0.1548, 0.1548, 0.1548, 0.1548, 0.1548, 0.1548, 0.1548, 0.1548, 0.1548, 0.1548, 0.1548, 0.1548, 0.1548, 0.1548, 0.1548, 0.1548, 0.1548, 0.1548, 0.1548, 0.1548, 0.1548, 0.1548, 0.1548, 0.1548, 0.1548, 0.1548, 0.1548, 0.1548, 0.1548, 0.1548, 0.1548, 0.1548, 0.1548, 0.1548, 0.1548, 0.1548, 0.1548, 0.1548, 0.1548, 0.1548, 0.1548, 0.1548, 0.1548, 0.1548, 0.1548, 0.1548, 0.1548, 0.1548, 0.1548, 0.1548, 0.1548, 0.1548, 0.1548, 0.1548, 0.1548, 0.1548, 0.1548, 0.1548, 0.1548, 0.1548, 0.1548, 0.1548, 0.1548, 0.1548, 0.1548, 0.1548, 0.1548, 0.1548, 0.1548, 0.1548, 0.1548, 0.1548, 0.1548, 0.1548, 0.1548, 0.1548, 0.1548, 0.1548, 0.1548, 0.1548, 0.1548, 0.1548, 0.1548, 0.1548, 0.1548, 0.1548, 0.1548, 0.1548, 0.1548, 0.1548, 0.1548, 0.1548, 0.1548, 0.1548, 0.1548, 0.1548, 0.1548, 0.1548, 0.1548, 0.1548, 0.1548, 0.1548, 0.1548, 0.1548, 0.1548, 0.1548, 0.1548, 0.1548, 0.1548, 0.1548, 0.1548, 0.1548, 0.1548, 0.1548, 0.1548, 0.1548, 0.1548, 0.1548, 0.1548, 0.1548, 0.1548, 0.1548, 0.1548, 0.1548, 0.1548, 0.1548, 0.1548, 0.1548, 0.1548, 0.1548, 0.1548, 0.1548, 0.1548, 0.1548, 0.1548, 0.1548, 0.1548, 0.1548, 0.1548, 0.1548, 0.1548, 0.1548, 0.1548, 0.1548, 0.1548, 0.1548, 0.1548, 0.1548, 0.1548, 0.1548, 0.1548, 0.1548, 0.1548, 0.1548, 0.1438, 0.1438, 0.1438, 0.1438, 0.1438, 0.1438, 0.1438, 0.1438, 0.1438, 0.1438, 0.1438, 0.1438, 0.1438, 0.1438, 0.1438, 0.1438, 0.1438, 0.1438, 0.1438, 0.1438, 0.1438, 0.1438, 0.1438, 0.1438, 0.1438, 0.1438, 0.1438, 0.1438, 0.1438, 0.1438, 0.1438, 0.1438, 0.1438, 0.1438, 0.1438, 0.1438, 0.1438, 0.1438, 0.1438, 0.1438, 0.1438, 0.1438, 0.1438, 0.1438, 0.1438, 0.1438, 0.1438, 0.1438, 0.1438, 0.1438, 0.1438, 0.1438, 0.1438, 0.1438, 0.1438, 0.1438, 0.1438, 0.1438, 0.1438, 0.1438, 0.1438, 0.1438, 0.1438, 0.1438, 0.1438, 0.1438, 0.1438, 0.1438, 0.1438, 0.1438, 0.1438, 0.1438, 0.1438, 0.1438, 0.1438, 0.1438, 0.1438, 0.1438, 0.1438, 0.1438, 0.1438, 0.1438, 0.1438, 0.1438, 0.1438, 0.1438, 0.1438, 0.1438, 0.1438, 0.1438, 0.1438, 0.1438, 0.1438, 0.1438, 0.1438, 0.1438, 0.1438, 0.1438, 0.1438, 0.1438, 0.1438, 0.1438, 0.1438, 0.1438, 0.1438, 0.1438, 0.1438, 0.1438, 0.1438, 0.1438, 0.1438, 0.1438, 0.1438, 0.1438, 0.1438, 0.1438, 0.1438, 0.1438, 0.1438, 0.1438, 0.1438, 0.1438, 0.1438, 0.1438, 0.1438, 0.1438, 0.1438, 0.1438, 0.1438, 0.1438, 0.1438, 0.1438, 0.1438, 0.1438, 0.1438, 0.1438, 0.1438, 0.1438, 0.1438, 0.1438, 0.1438, 0.1438, 0.1438, 0.1438, 0.1438, 0.1438, 0.1438, 0.1438, 0.1438, 0.1438, 0.1438, 0.1438, 0.1438, 0.1438, 0.1438, 0.1438, 0.1438, 0.1438, 0.1438, 0.1438, 0.1438, 0.1438, 0.1438, 0.1438, 0.1438, 0.1438, 0.1438, 0.1438, 0.1438, 0.1438, 0.1438, 0.1438, 0.1438, 0.1438, 0.1438, 0.1438, 0.1438, 0.1438, 0.1438];

T1_J = [1, 406, 1126];
T2_J = [480, 870, 1440];
d_J = [90, 105, 60];

pricePerPowerLevel = [0.2047, 0.2206, 0.2834, 0.3492, 0.4198, 0.6280, 0.8302, 1.0324, 1.2351];
maxPowerPerPowerLevel = [2300, 3450, 4600, 5750, 6900, 10350, 13800, 17250, 20700];

f_J = [ 1750, 1750, 1750, 1750, 1750, 1750, 1750, 1750, 1750, 1750, 1750, 1750, 1750, 1750, 1750, 1250, 1250, 1250, 1250, 1250, 1250, 1250, 1250, 1250, 1250, 1250, 1250, 1250, 1250, 1250, 120, 120, 120, 120, 120, 120, 120, 120, 120, 120, 120, 120, 120, 120, 120, 1600, 1600, 1600, 1600, 1600, 1600, 1600, 1600, 1600, 1600, 1600, 1600, 1600, 1600, 1600, 640, 640, 640, 640, 640, 640, 640, 640, 640, 640, 640, 640, 640, 640, 640, 220, 220, 220, 220, 220, 220, 220, 220, 220, 220, 220, 220, 220, 220, 220, 
		1840, 1840, 1840, 1840, 1840, 1840, 1840, 1840, 1840, 1840, 1840, 1840, 1840, 1840, 1840, 980, 980, 980, 980, 980, 980, 980, 980, 980, 980, 980, 980, 980, 980, 980, 160, 160, 160, 160, 160, 160, 160, 160, 160, 160, 160, 160, 160, 160, 160, 220, 220, 220, 220, 220, 220, 220, 220, 220, 220, 220, 220, 220, 220, 220, 300, 300, 300, 300, 300, 300, 300, 300, 300, 300, 300, 300, 300, 300, 300, 340, 340, 340, 340, 340, 340, 340, 340, 340, 340, 340, 340, 340, 340, 340, 120, 120, 120, 120, 120, 120, 120, 120, 120, 120, 120, 120, 120, 120, 120, 
		1660, 1660, 1660, 1660, 1660, 1660, 1660, 1660, 1660, 1660, 1660, 1660, 1660, 1660, 1660, 1720, 1720, 1720, 1720, 1720, 1720, 1720, 1720, 1720, 1720, 1720, 1720, 1720, 1720, 1720, 300, 300, 300, 300, 300, 300, 300, 300, 300, 300, 300, 300, 300, 300, 300, 220, 220, 220, 220, 220, 220, 220, 220, 220, 220, 220, 220, 220, 220, 220];
       


/* TABLE SM1 */









      

